; benchmark generated from python API
(set-info :status unknown)
(declare-fun bool.b6 () Bool)
(declare-fun bool.b5 () Bool)
(declare-fun bool.b7 () Bool)
(declare-fun bool.b22 () Bool)
(declare-fun x4 () Real)
(declare-fun x3 () Real)
(declare-fun x5 () Real)
(assert
 (forall ((?lambda Real) )(let (($x22588 (not bool.b22)))
 (let (($x28660 (exists ((?lambdaprime Real) )(! (let (($x22588 (not bool.b22)))
 (let (($x8040 (not (<= (* (- 1.0) (+ x3 (* (/ 1.0 2.0) ?lambdaprime))) (- 30.0)))))
 (let (($x6253 (and $x8040 (not (<= (* (- 1.0) (+ x4 (* 60.0 ?lambdaprime))) (- 4910.0))))))
 (let (($x11188 (and (not $x6253) (and $x22588 (and (not bool.b7) (and (not bool.b5) bool.b6))))))
 (let (($x4406 (and $x8040 (not (<= (* (- 1.0) (+ x4 (* 60.0 ?lambdaprime))) (- 4500.0))))))
 (let (($x24791 (and (not $x4406) (and $x22588 (and bool.b7 (and (not bool.b5) (not bool.b6)))))))
 (let (($x26120 (and (not (<= (* (- 1.0) (+ x4 (* 60.0 ?lambdaprime))) (- 4100.0))) $x8040)))
 (let (($x4643 (and (not $x26120) (and $x22588 (and (not bool.b7) (and (not bool.b5) (not bool.b6)))))))
 (let (($x10154 (and (not (<= (* (- 1.0) (+ x5 (* 1.0 ?lambdaprime))) (- 10.0))) (and (and (not $x4643) (not $x24791)) (not $x11188)))))
 (and (and (<= 0.0 ?lambdaprime) (<= ?lambdaprime ?lambda)) (not $x10154))))))))))) :qid k!22))
 ))
 (or (or $x28660 (< ?lambda 0.0)) (not (and $x22588 (and (not bool.b7) (and bool.b5 (not bool.b6)))))))))
 )
(check-sat)
